(declare-fun var0 () String)
(assert (str.in.re var0 (re.++ (re.* (re.union (re.+ (re.+ (re.+ (re.+ (re.* (re.union (re.* (re.union (re.+ (re.+ (re.* (re.* (re.* (re.+ (re.+ (re.+ (re.+ (str.to.re "xxxxx")))))))))) (re.* (re.union (re.+ (re.* (re.* (re.+ (re.+ (re.union (re.+ (str.to.re "yyy")) (re.+ (str.to.re "zzzzz")))))))) (re.* (re.union (re.union (re.* (re.* (re.* (re.+ (str.to.re "AAA"))))) (re.+ (re.union (re.union (re.union (str.to.re "BBBB") (str.to.re "CC")) (re.* (str.to.re "DDDD"))) (re.* (re.+ (str.to.re "EEEE")))))) (re.union (re.union (re.union (re.+ (re.+ (str.to.re "FFFF"))) (re.* (re.+ (str.to.re "GGGGG")))) (re.+ (re.* (re.* (str.to.re "HHHH"))))) (re.* (re.* (re.union (re.* (str.to.re "II")) (re.+ (str.to.re "JJJ")))))))))))) (re.* (re.* (re.+ (re.union (re.* (re.* (re.union (re.+ (re.union (re.* (re.union (str.to.re "KKKK") (str.to.re "LLLLL"))) (re.union (re.* (str.to.re "MMM")) (re.* (str.to.re "NNN"))))) (re.union (re.union (re.* (re.* (str.to.re "OOOO"))) (re.+ (re.union (str.to.re "PPPPP") (str.to.re "QQ")))) (re.* (re.* (re.union (str.to.re "RRRRR") (str.to.re "SSS")))))))) (re.union (re.union (re.union (re.union (re.union (re.* (re.union (str.to.re "TT") (str.to.re "UUUU"))) (re.* (re.+ (str.to.re "VV")))) (re.union (re.union (re.* (str.to.re "WWW")) (re.union (str.to.re "XXXX") (str.to.re "YYYY"))) (re.union (re.union (str.to.re "ZZZZZ") (str.to.re "!!!!")) (re.+ (str.to.re """"""""""))))) (re.+ (re.union (re.union (re.+ (str.to.re "####")) (re.+ (str.to.re "$$"))) (re.* (re.+ (str.to.re "%%")))))) (re.union (re.union (re.+ (re.+ (re.* (str.to.re "&&&")))) (re.+ (re.union (re.+ (str.to.re "'''")) (re.union (str.to.re "(((((") (str.to.re ")))))"))))) (re.* (re.+ (re.+ (re.* (str.to.re "**"))))))) (re.* (re.* (re.union (re.+ (re.+ (re.+ (str.to.re "+++")))) (re.union (re.union (re.union (str.to.re ",,,") (str.to.re "----")) (re.+ (str.to.re "....."))) (re.union (re.* (str.to.re "/////")) (re.* (str.to.re "::")))))))))))))))))) (re.* (re.union (re.* (re.* (re.union (re.+ (re.union (re.+ (re.+ (re.* (re.* (re.+ (re.* (re.+ (re.+ (re.union (re.* (str.to.re ";;;;;")) (re.* (str.to.re "<<<<"))))))))))) (re.* (re.* (re.union (re.+ (re.+ (re.* (re.+ (re.+ (re.+ (re.+ (str.to.re "==")))))))) (re.* (re.union (re.union (re.* (re.+ (re.* (re.+ (str.to.re ">>>"))))) (re.union (re.union (re.* (re.+ (str.to.re "???"))) (re.+ (re.* (str.to.re "@@@@@")))) (re.* (re.* (re.* (str.to.re "[[[[")))))) (re.* (re.+ (re.union (re.union (re.union (str.to.re "\\\\\\") (str.to.re "]]]")) (re.+ (str.to.re "^^^^"))) (re.* (re.union (str.to.re "____") (str.to.re "``"))))))))))))) (re.+ (re.union (re.* (re.union (re.* (re.union (re.* (re.+ (re.union (re.* (re.union (re.union (str.to.re "{{{{{") (str.to.re "|||||")) (re.* (str.to.re "}}")))) (re.union (re.union (re.* (str.to.re "~~~~~")) (re.+ (str.to.re "0000"))) (re.+ (re.* (str.to.re "111"))))))) (re.union (re.+ (re.* (re.* (re.union (re.* (str.to.re "222")) (re.+ (str.to.re "33333")))))) (re.+ (re.union (re.+ (re.union (re.union (str.to.re "444") (str.to.re "555")) (re.+ (str.to.re "6666")))) (re.* (re.+ (re.union (str.to.re "7777") (str.to.re "888"))))))))) (re.* (re.* (re.+ (re.* (re.+ (re.* (re.* (re.union (str.to.re "99") (str.to.re "aaaaa"))))))))))) (re.union (re.+ (re.* (re.union (re.+ (re.* (re.* (re.+ (re.+ (re.* (str.to.re "bbb"))))))) (re.union (re.+ (re.+ (re.* (re.+ (re.* (str.to.re "ccc")))))) (re.* (re.* (re.+ (re.+ (re.+ (str.to.re "ddd")))))))))) (re.+ (re.union (re.union (re.* (re.* (re.union (re.+ (re.union (re.* (str.to.re "eeee")) (re.+ (str.to.re "ff")))) (re.* (re.union (re.+ (str.to.re "ggg")) (re.union (str.to.re "hhhhh") (str.to.re "iii"))))))) (re.union (re.union (re.+ (re.union (re.union (re.union (str.to.re "jjjj") (str.to.re "kkkk")) (re.union (str.to.re "llll") (str.to.re "mmmm"))) (re.union (re.+ (str.to.re "nn")) (re.+ (str.to.re "ooooo"))))) (re.* (re.* (re.+ (re.+ (str.to.re "ppppp")))))) (re.* (re.union (re.* (re.union (re.* (str.to.re "qqq")) (re.union (str.to.re "rrrr") (str.to.re "sssss")))) (re.+ (re.union (re.* (str.to.re "tt")) (re.union (str.to.re "uuuu") (str.to.re "vv")))))))) (re.union (re.union (re.+ (re.union (re.+ (re.* (re.* (str.to.re "wwwww")))) (re.+ (re.+ (re.+ (str.to.re "xxxxx")))))) (re.* (re.+ (re.+ (re.union (re.* (str.to.re "yyyy")) (re.* (str.to.re "zzzzz"))))))) (re.union (re.union (re.union (re.+ (re.union (re.+ (str.to.re "AAAA")) (re.union (str.to.re "BBB") (str.to.re "CCCCC")))) (re.union (re.+ (re.* (str.to.re "DD"))) (re.union (re.+ (str.to.re "EEEEE")) (re.union (str.to.re "FFFFF") (str.to.re "GGGGG"))))) (re.union (re.union (re.* (re.+ (str.to.re "HHHH"))) (re.union (re.* (str.to.re "IIIII")) (re.union (str.to.re "JJ") (str.to.re "KKKK")))) (re.* (re.+ (re.* (str.to.re "LLLLL")))))) (re.* (re.* (re.union (re.+ (re.* (str.to.re "MMMMM"))) (re.+ (re.* (str.to.re "NN")))))))))))))))) (re.* (re.union (re.+ (re.* (re.union (re.+ (re.union (re.union (re.* (re.* (re.* (re.* (re.union (re.+ (re.union (str.to.re "OOOOO") (str.to.re "PPPPP"))) (re.+ (re.+ (str.to.re "QQQQQ")))))))) (re.* (re.+ (re.+ (re.+ (re.union (re.+ (re.+ (str.to.re "RRRRR"))) (re.+ (re.+ (str.to.re "SSSS"))))))))) (re.union (re.* (re.union (re.union (re.+ (re.+ (re.union (re.union (str.to.re "TTTT") (str.to.re "UU")) (re.* (str.to.re "VVV"))))) (re.* (re.union (re.union (re.+ (str.to.re "WWWW")) (re.union (str.to.re "XXXXX") (str.to.re "YY"))) (re.union (re.+ (str.to.re "ZZZZZ")) (re.union (str.to.re "!!!") (str.to.re """""""")))))) (re.union (re.* (re.union (re.union (re.* (str.to.re "###")) (re.+ (str.to.re "$$"))) (re.+ (re.union (str.to.re "%%%") (str.to.re "&&&"))))) (re.+ (re.* (re.union (re.union (str.to.re "''''") (str.to.re "((")) (re.+ (str.to.re ")))))")))))))) (re.union (re.union (re.* (re.union (re.* (re.+ (re.+ (str.to.re "****")))) (re.* (re.+ (re.* (str.to.re "+++++")))))) (re.+ (re.+ (re.* (re.+ (re.union (str.to.re ",,") (str.to.re "----"))))))) (re.+ (re.union (re.+ (re.* (re.+ (re.union (str.to.re "....") (str.to.re "/////"))))) (re.* (re.* (re.+ (re.* (str.to.re ":::"))))))))))) (re.+ (re.union (re.union (re.* (re.+ (re.+ (re.union (re.union (re.union (re.union (str.to.re ";;") (str.to.re "<<<<<")) (re.* (str.to.re "===="))) (re.union (re.* (str.to.re ">>")) (re.* (str.to.re "????")))) (re.* (re.+ (re.+ (str.to.re "@@@@")))))))) (re.* (re.union (re.+ (re.+ (re.* (re.* (re.union (str.to.re "[[") (str.to.re "\\\\")))))) (re.union (re.union (re.+ (re.+ (re.* (str.to.re "]]]]")))) (re.union (re.union (re.+ (str.to.re "^^")) (re.* (str.to.re "____"))) (re.* (re.* (str.to.re "```"))))) (re.+ (re.+ (re.+ (re.union (str.to.re "{{{") (str.to.re "||"))))))))) (re.+ (re.union (re.union (re.+ (re.+ (re.union (re.+ (re.union (str.to.re "}}}}") (str.to.re "~~~"))) (re.+ (re.+ (str.to.re "000")))))) (re.+ (re.union (re.+ (re.union (re.* (str.to.re "11111")) (re.+ (str.to.re "222")))) (re.+ (re.+ (re.union (str.to.re "333") (str.to.re "4444"))))))) (re.union (re.* (re.+ (re.+ (re.* (re.* (str.to.re "55")))))) (re.* (re.union (re.* (re.union (re.union (str.to.re "66666") (str.to.re "7777")) (re.* (str.to.re "88")))) (re.* (re.* (re.union (str.to.re "9999") (str.to.re "aaaaa")))))))))))))) (re.union (re.+ (re.* (re.+ (re.union (re.* (re.union (re.* (re.+ (re.union (re.union (re.* (re.union (str.to.re "bbb") (str.to.re "ccccc"))) (re.union (re.union (str.to.re "dddd") (str.to.re "ee")) (re.+ (str.to.re "ff")))) (re.* (re.union (re.union (str.to.re "gggg") (str.to.re "hhhh")) (re.* (str.to.re "iii"))))))) (re.union (re.* (re.union (re.union (re.union (re.* (str.to.re "jj")) (re.* (str.to.re "kkkkk"))) (re.union (re.* (str.to.re "lllll")) (re.union (str.to.re "mmmmm") (str.to.re "nnnn")))) (re.+ (re.+ (re.* (str.to.re "oo")))))) (re.* (re.* (re.* (re.+ (re.* (str.to.re "ppppp"))))))))) (re.* (re.+ (re.+ (re.+ (re.* (re.union (re.* (re.+ (str.to.re "qqqqq"))) (re.union (re.+ (str.to.re "rrr")) (re.union (str.to.re "sssss") (str.to.re "tttt"))))))))))))) (re.union (re.+ (re.* (re.union (re.union (re.* (re.+ (re.* (re.+ (re.+ (re.+ (re.* (str.to.re "uu")))))))) (re.* (re.+ (re.+ (re.+ (re.* (re.union (re.+ (str.to.re "vvvvv")) (re.+ (str.to.re "wwwww"))))))))) (re.* (re.* (re.union (re.+ (re.union (re.+ (re.* (re.+ (str.to.re "xx")))) (re.* (re.+ (re.* (str.to.re "yy")))))) (re.* (re.* (re.* (re.+ (re.* (str.to.re "zzzzz")))))))))))) (re.+ (re.+ (re.* (re.union (re.union (re.+ (re.+ (re.union (re.* (re.+ (re.union (str.to.re "AA") (str.to.re "BBBB")))) (re.* (re.union (re.union (str.to.re "CCCC") (str.to.re "DD")) (re.* (str.to.re "EEEEE"))))))) (re.* (re.+ (re.+ (re.union (re.union (re.* (str.to.re "FFFFF")) (re.union (str.to.re "GGG") (str.to.re "HHH"))) (re.+ (re.+ (str.to.re "III")))))))) (re.+ (re.union (re.* (re.+ (re.+ (re.+ (re.* (str.to.re "JJJJJ")))))) (re.* (re.union (re.union (re.+ (re.union (str.to.re "KKK") (str.to.re "LLL"))) (re.* (re.* (str.to.re "MMMMM")))) (re.+ (re.+ (re.+ (str.to.re "NNN")))))))))))))))))))) (re.* (re.* (re.union (re.+ (re.* (re.+ (re.+ (re.union (re.+ (re.* (re.+ (re.union (re.union (re.+ (re.+ (re.* (re.* (re.+ (re.union (str.to.re "00") (str.to.re "11"))))))) (re.union (re.* (re.+ (re.+ (re.+ (re.+ (str.to.re "22222")))))) (re.union (re.* (re.union (re.union (re.+ (str.to.re "333")) (re.+ (str.to.re "4444"))) (re.* (re.* (str.to.re "555"))))) (re.union (re.union (re.+ (re.* (str.to.re "6666"))) (re.union (re.union (str.to.re "77777") (str.to.re "8888")) (re.+ (str.to.re "99")))) (re.+ (re.* (re.+ (str.to.re "aaaaa")))))))) (re.* (re.* (re.+ (re.* (re.+ (re.* (re.* (str.to.re "bbbb")))))))))))) (re.* (re.* (re.+ (re.* (re.union (re.union (re.* (re.* (re.union (re.* (re.union (str.to.re "cc") (str.to.re "dd"))) (re.+ (re.union (str.to.re "eeeee") (str.to.re "ffff")))))) (re.+ (re.+ (re.* (re.+ (re.union (str.to.re "gggg") (str.to.re "hhh"))))))) (re.union (re.union (re.+ (re.* (re.+ (re.+ (str.to.re "iiii"))))) (re.union (re.* (re.union (re.+ (str.to.re "jjjjj")) (re.* (str.to.re "kk")))) (re.* (re.* (re.* (str.to.re "llll")))))) (re.union (re.+ (re.* (re.union (re.union (str.to.re "mmmm") (str.to.re "nn")) (re.+ (str.to.re "oooo"))))) (re.* (re.* (re.* (re.union (str.to.re "pp") (str.to.re "qqqqq"))))))))))))))))) (re.+ (re.+ (re.+ (re.* (re.union (re.+ (re.* (re.+ (re.* (re.* (re.* (re.+ (re.* (re.+ (re.union (re.* (str.to.re "rr")) (re.* (str.to.re "sssss")))))))))))) (re.+ (re.+ (re.* (re.* (re.+ (re.* (re.union (re.+ (re.* (re.union (re.+ (str.to.re "ttttt")) (re.union (str.to.re "uuuu") (str.to.re "vvvvv"))))) (re.+ (re.+ (re.+ (re.* (str.to.re "www")))))))))))))))))))))))
(assert (<= 15 (str.len var0)))
(check-sat)